Version identifier: 20.1.0.0 | 2020-11-10 | 9bedb6d68
Tried aggregator 2 times.
MIP Presolve eliminated 1245 rows and 668 columns.
MIP Presolve modified 3066 coefficients.
Aggregator did 140 substitutions.
Reduced MIP has 1824 rows, 1407 columns, and 5992 nonzeros.
Reduced MIP has 266 binaries, 1141 generals, 0 SOSs, and 0 indicators.
Presolve time = 0.03 sec. (7.17 ticks)
Found incumbent of value 1836.000000 after 0.06 sec. (14.40 ticks)
Probing fixed 40 vars, tightened 358 bounds.
Probing time = 0.00 sec. (1.22 ticks)
Tried aggregator 1 time.
Detecting symmetries...
MIP Presolve eliminated 780 rows and 40 columns.
MIP Presolve modified 101 coefficients.
Reduced MIP has 1044 rows, 1367 columns, and 3412 nonzeros.
Reduced MIP has 412 binaries, 955 generals, 0 SOSs, and 0 indicators.
Presolve time = 0.01 sec. (3.81 ticks)
Probing time = 0.00 sec. (0.33 ticks)
Clique table members: 85.
MIP emphasis: balance optimality and feasibility.
MIP search method: dynamic search.
Parallel mode: deterministic, using up to 24 threads.
Root relaxation solution time = 0.02 sec. (2.53 ticks)

        Nodes                                         Cuts/
   Node  Left     Objective  IInf  Best Integer    Best Bound    ItCnt     Gap

*     0+    0                         1836.0000        0.0000           100.00%
      0     0        0.0000    64     1836.0000        0.0000      293  100.00%
*     0+    0                           12.0000        0.0000           100.00%
      0     0        0.0000    85       12.0000     Cuts: 120      406  100.00%
      0     0        0.0000    63       12.0000     Cuts: 132      499  100.00%
      0     0        0.0000   101       12.0000      Cuts: 81      560  100.00%
*     0+    0                            6.0000        0.0000           100.00%
      0     0        cutoff              6.0000        6.0000      560    0.00%
Elapsed time = 0.82 sec. (116.26 ticks, tree = 0.01 MB, solutions = 3)

Cover cuts applied:  1
Implied bound cuts applied:  58
Flow cuts applied:  4
Mixed integer rounding cuts applied:  14
Zero-half cuts applied:  75
Lift and project cuts applied:  7
Gomory fractional cuts applied:  35

Root node processing (before b&c):
  Real time             =    0.82 sec. (116.38 ticks)
Parallel b&c, 24 threads:
  Real time             =    0.00 sec. (0.00 ticks)
  Sync time (average)   =    0.00 sec.
  Wait time (average)   =    0.00 sec.
                          ------------
Total (root+branch&cut) =    0.82 sec. (116.38 ticks)

Solution status = Optimal
Solution LB = 6
Solution UB = 6
Runtime = 0.834806 seconds
	Command being timed: "/home/min/git_repos/CS598MEBProject/CNT-ILP/build/cnt -s 2 ./output/k8_n20/simC_c1_k8_n20_u1_s2_del04.input-left.cnp"
	User time (seconds): 11.55
	System time (seconds): 0.09
	Percent of CPU this job got: 1225%
	Elapsed (wall clock) time (h:mm:ss or m:ss): 0:00.95
	Average shared text size (kbytes): 0
	Average unshared data size (kbytes): 0
	Average stack size (kbytes): 0
	Average total size (kbytes): 0
	Maximum resident set size (kbytes): 97044
	Average resident set size (kbytes): 0
	Major (requiring I/O) page faults: 125
	Minor (reclaiming a frame) page faults: 21694
	Voluntary context switches: 4100
	Involuntary context switches: 1765
	Swaps: 0
	File system inputs: 29856
	File system outputs: 24
	Socket messages sent: 0
	Socket messages received: 0
	Signals delivered: 0
	Page size (bytes): 4096
	Exit status: 0
